
Value of objective function: 1000000000000000019884624838656.00000000

Actual values of the variables:
maximize                    1e+30
bookcase                       15
desk                            0
chair                           0
bedframe                       90
